w = 30;
n = 29;
measures = [|6, 18,
|2, 12,
|10, 7,
|4, 23,
|4, 1,
|7, 7,
|11, 4,
|6, 5,
|2, 7,
|6, 11,
|10, 19,
|11, 5,
|4, 2,
|7, 5,
|4, 2,
|7, 12,
|7, 13,
|3, 6,
|6, 10,
|9, 16,
|1, 4,
|4, 10,
|6, 24,
|9, 9,
|2, 1,
|8, 5,
|3, 5,
|7, 25,
|5, 21,
|];
initial_x = [0, 6, 8, 18, 22, 0, 7, 18, 24, 0, 6, 16, 0, 4, 11, 15, 22, 0, 3, 9, 18, 19, 23, 0, 9, 11, 19, 22, 0];
initial_y = [0, 0, 0, 0, 0, 23, 23, 23, 23, 30, 30, 30, 49, 49, 49, 49, 49, 62, 62, 62, 62, 62, 62, 86, 86, 86, 86, 86, 111];